c turning on binary mode checking
c parsing input formula with 259840 variables and 1039934 clauses
c finished parsing, read 23532335 bytes from proof file
c detected empty clause; start verification via backward checking
c 15971 of 1039934 clauses in core                            
c 17357 of 611805 lemmas in core using 178523 resolution steps
c 0 RAT lemmas in core; 1364 redundant literals in core lemmas
s VERIFIED
c verification time: 3.128 seconds
